NAME          
ROWS
 N  OBJ
 L  c1
 L  c2
 L  c3
 L  c4
 L  c5
COLUMNS
    MARKER    'MARKER'                 'INTORG'
    x[1]      c1        996
    x[1]      c2        564
    x[1]      c3        359
    x[1]      c4        619
    x[1]      c5        555
    x[1]      OBJ       -60
    x[2]      c1        974
    x[2]      c2        438
    x[2]      c3        472
    x[2]      c4        552
    x[2]      c5        128
    x[2]      OBJ       -736
    x[3]      c1        98
    x[3]      c2        387
    x[3]      c3        751
    x[3]      c4        850
    x[3]      c5        289
    x[3]      OBJ       -627
    x[4]      c1        816
    x[4]      c2        146
    x[4]      c3        479
    x[4]      c4        64
    x[4]      c5        672
    x[4]      OBJ       -15
    x[5]      c1        662
    x[5]      c2        832
    x[5]      c3        373
    x[5]      c4        125
    x[5]      c5        813
    x[5]      OBJ       -842
    x[6]      c1        702
    x[6]      c2        579
    x[6]      c3        283
    x[6]      c4        992
    x[6]      c5        880
    x[6]      OBJ       -421
    x[7]      c1        459
    x[7]      c2        946
    x[7]      c3        772
    x[7]      c4        775
    x[7]      c5        111
    x[7]      OBJ       -69
    x[8]      c1        795
    x[8]      c2        942
    x[8]      c3        94
    x[8]      c4        273
    x[8]      c5        8
    x[8]      OBJ       -233
    x[9]      c1        730
    x[9]      c2        857
    x[9]      c3        1
    x[9]      c4        586
    x[9]      c5        902
    x[9]      OBJ       -551
    x[10]     c1        596
    x[10]     c2        615
    x[10]     c3        431
    x[10]     c4        917
    x[10]     c5        658
    x[10]     OBJ       -596
    x[11]     c1        198
    x[11]     c2        516
    x[11]     c3        13
    x[11]     c4        757
    x[11]     c5        393
    x[11]     OBJ       -49
    x[12]     c1        383
    x[12]     c2        180
    x[12]     c3        249
    x[12]     c4        927
    x[12]     c5        553
    x[12]     OBJ       -865
    x[13]     c1        482
    x[13]     c2        343
    x[13]     c3        7
    x[13]     c4        248
    x[13]     c5        716
    x[13]     OBJ       -376
    x[14]     c1        132
    x[14]     c2        336
    x[14]     c3        945
    x[14]     c4        251
    x[14]     c5        843
    x[14]     OBJ       -418
    x[15]     c1        758
    x[15]     c2        703
    x[15]     c3        520
    x[15]     c4        27
    x[15]     c5        340
    x[15]     OBJ       -656
    x[16]     c1        382
    x[16]     c2        789
    x[16]     c3        371
    x[16]     c4        604
    x[16]     c5        950
    x[16]     OBJ       -438
    x[17]     c1        339
    x[17]     c2        766
    x[17]     c3        744
    x[17]     c4        200
    x[17]     c5        871
    x[17]     OBJ       -229
    x[18]     c1        825
    x[18]     c2        629
    x[18]     c3        842
    x[18]     c4        117
    x[18]     c5        884
    x[18]     OBJ       -422
    x[19]     c1        17
    x[19]     c2        477
    x[19]     c3        797
    x[19]     c4        690
    x[19]     c5        174
    x[19]     OBJ       -933
    x[20]     c1        993
    x[20]     c2        332
    x[20]     c3        468
    x[20]     c4        787
    x[20]     c5        28
    x[20]     OBJ       -194
    x[21]     c1        213
    x[21]     c2        280
    x[21]     c3        367
    x[21]     c4        555
    x[21]     c5        582
    x[21]     OBJ       -267
    x[22]     c1        945
    x[22]     c2        856
    x[22]     c3        249
    x[22]     c4        105
    x[22]     c5        955
    x[22]     OBJ       -26
    x[23]     c1        656
    x[23]     c2        918
    x[23]     c3        903
    x[23]     c4        779
    x[23]     c5        478
    x[23]     OBJ       -756
    x[24]     c1        184
    x[24]     c2        993
    x[24]     c3        288
    x[24]     c4        93
    x[24]     c5        850
    x[24]     OBJ       -321
    x[25]     c1        797
    x[25]     c2        436
    x[25]     c3        96
    x[25]     c4        519
    x[25]     c5        742
    x[25]     OBJ       -249
RHS
    rhs       c1        7066
    rhs       c2        7430
    rhs       c3        5437
    rhs       c4        6206
    rhs       c5        7188
RANGES
BOUNDS
 BV bounds    x[1]
 BV bounds    x[2]
 BV bounds    x[3]
 BV bounds    x[4]
 BV bounds    x[5]
 BV bounds    x[6]
 BV bounds    x[7]
 BV bounds    x[8]
 BV bounds    x[9]
 BV bounds    x[10]
 BV bounds    x[11]
 BV bounds    x[12]
 BV bounds    x[13]
 BV bounds    x[14]
 BV bounds    x[15]
 BV bounds    x[16]
 BV bounds    x[17]
 BV bounds    x[18]
 BV bounds    x[19]
 BV bounds    x[20]
 BV bounds    x[21]
 BV bounds    x[22]
 BV bounds    x[23]
 BV bounds    x[24]
 BV bounds    x[25]
ENDATA
